
Gurobi 11.0.3 (linux64) logging started Thu Nov 21 16:43:22 2024

Set parameter LogFile to value "/home/yihong/Coding/OR_SUC/SUC_results_bigM100000_thread4/case24_ieee_rts_theta0.5_epsilon0.025_gurobi_seed80000_num_gen100_N_WDR100_load_scaling_factor1_proposed_T8quadra_cost.txt"
Set parameter TimeLimit to value 3600
Gurobi Optimizer version 11.0.3 build v11.0.3rc0 (linux64 - "Ubuntu 20.04.6 LTS")

CPU model: AMD EPYC 7532 32-Core Processor, instruction set [SSE2|AVX|AVX2]
Thread count: 64 physical cores, 128 logical processors, using up to 4 threads

Optimize a model with 16982 rows, 10021 columns and 235066 nonzeros
Model fingerprint: 0x8f9af29b
Model has 800 quadratic constraints
Variable types: 9221 continuous, 800 integer (800 binary)
Coefficient statistics:
  Matrix range     [3e-04, 2e+03]
  QMatrix range    [2e-03, 8e-03]
  QLMatrix range   [6e-02, 6e+01]
  Objective range  [1e+00, 1e+00]
  Bounds range     [1e+00, 1e+00]
  RHS range        [1e+00, 9e+03]
Presolve removed 13852 rows and 4469 columns
Presolve time: 0.07s
Presolved: 3130 rows, 5552 columns, 22119 nonzeros
Presolved model has 800 quadratic constraint(s)
Variable types: 4752 continuous, 800 integer (800 binary)

Root relaxation: objective 2.468071e+04, 2418 iterations, 0.03 seconds (0.04 work units)

    Nodes    |    Current Node    |     Objective Bounds      |     Work
 Expl Unexpl |  Obj  Depth IntInf | Incumbent    BestBd   Gap | It/Node Time

     0     0 24680.7137    0    8          - 24680.7137      -     -    0s
     0     0 184700.791    0  160          - 184700.791      -     -    0s
     0     0 184704.822    0  160          - 184704.822      -     -    0s
     0     0 261415.464    0  136          - 261415.464      -     -    0s
     0     0 261417.360    0  136          - 261417.360      -     -    0s
     0     0 261448.404    0  112          - 261448.404      -     -    0s
     0     0 261451.131    0  112          - 261451.131      -     -    0s
     0     0 261451.131    0  120          - 261451.131      -     -    0s
     0     0 261451.131    0  120          - 261451.131      -     -    0s
     0     2 261451.289    0  120          - 261451.289      -     -    0s
H  199   221                    261540.76138 261459.134  0.03%   7.0    1s
*  199   221              55    261540.76138 261459.134  0.03%   7.0    1s

Cutting planes:
  Gomory: 85
  Implied bound: 175
  MIR: 23
  Flow cover: 23

Explored 246 nodes (8183 simplex iterations) in 1.27 seconds (1.32 work units)
Thread count was 4 (of 128 available processors)

Solution count 2: 261541 261541 

Optimal solution found (tolerance 1.00e-03)
Warning: max constraint violation (6.4464e-07) exceeds tolerance
Best objective 2.615407613844e+05, best bound 2.614632313357e+05, gap 0.0296%
